; --proof-with-sharing --index-fresh-sorts --proof-define-skolems --proof-prune --proof-merge --disable-print-success --disable-banner --max-time=30
(set-option :produce-proofs true)
(set-logic AUFLIA)
(declare-sort A_d 0)
(declare-fun c_d () A_d)
(declare-fun zero_d () A_d)
(assert (! (not (not (= c_d zero_d))) :named a0))
(assert (! (not (= c_d zero_d)) :named a1))
(check-sat)
;;;;;;(get-proof)
